data/ILP/exact/instance093.lp
Minimize
obj: 122y_1 + 146y_2 + 50y_3 + 10y_4 + 64y_5 + 28y_6 + 62y_7 + 118y_8 + 40y_9 + 62y_10 + 74y_11 + 32y_12 + 87y_13 + 9y_14 + 62y_15 + 28y_16 + 74y_17 + 26y_18 + 40y_19 + 90y_20 + 28y_21 + 12y_22 + 46y_23 + 102y_24 + 146y_25 + 70y_26 + 132y_27 + 28y_28 + 28y_29 + 2y_30 + 118y_31 + 74y_32 + 40y_33 + 36y_34 + 2y_35 + 40y_36 + 74y_37 + 10y_38 + 14y_39 + 32y_40 + 36y_41 + 158y_42 + 32y_43 + 46y_44 + 16y_45 + 132y_46 + 46y_47 + 32y_48 + 16y_49 + 46y_50 + 28y_51 + 146y_52 + 64y_53 + 130y_54 + 8y_55 + 2y_56 + 26y_57 + 8y_58 + 28y_59 + 90y_60 + 40y_61 + 70y_62 + 132y_63 + 32y_64 + 28y_65 + 16y_66 + 112y_67 + 84y_68 + 46y_69 + 132y_70 + 40y_71 + 74y_72 + 32y_73 + 28y_74 + 24y_75 + 158y_76 + 6y_77 + 51y_78 + 11y_79 + 130y_80 + 10y_81 + 64y_82 + 54y_83 + 122y_84 + 32y_85 + 22y_86 + 8y_87 + 2y_88 + 10y_89 + 22y_90 + 130y_91 + 64y_92 + 123y_93 + 17y_94 + 122y_95 + 36y_96 + 32y_97 + 74y_98 + 32y_99 + 16y_100 + 17y_101 + 44y_102 + 46y_103 + 132y_104 + 28y_105 + 70y_106 + 84y_107 + 28y_108 + 132y_109 + 112y_110 + 40y_111 + 2y_112 + 74y_113 + 62y_114 + 2y_115 + 6y_116 + 26y_117 + 53y_118 + 14y_119 + 76y_120 + 122y_121 + 32y_122 + 158y_123 + 16y_124 + 28y_125 + 16y_126 + 20y_127 + 8y_128 + 140y_129 + 132y_130 + 28y_131 + 28y_132 + 112y_133 + 24y_134 + 28y_135 + 132y_136 + 16y_137 + 14y_138 + 98y_139 + 76y_140 + 158y_141 + 36y_142 + 84y_143 + 6y_144 + 90y_145 + 70y_146 + 28y_147 + 28y_148 + 26y_149 + 76y_150 + 6y_151 + 64y_152 + 158y_153 + 51y_154 + 26y_155 + 28y_156 + 14y_157 + 34y_158 + 98y_159 + 158y_160 + 122y_161 + 146y_162 + 84y_163 + 6y_164 + 28y_165 + 132y_166 + 32y_167 + 46y_168 + 132y_169 + 132y_170 + 46y_171 + 102y_172 + 76y_173 + 122y_174 + 32y_175 + 16y_176 + 54y_177 + 62y_178 + 98y_179 + 28y_180 + 26y_181 + 102y_182 + 132y_183 + 164y_184 + 46y_185 + 36y_186 + 12y_187 + 84y_188 + 158y_189 + 28y_190 + 6y_191 + 76y_192 + 14y_193 + 34y_194 + 46y_195 + 24y_196 + 6y_197 + 90y_198 + 28y_199 + 12y_200 + 8y_201 + 35y_202 + 2y_203 + 28y_204 + 8y_205 + 28y_206 + 6y_207 + 64y_208 + 16y_209 + 46y_210 + 12y_211 + 40y_212 + 2y_213 + 62y_214 + 114y_215 + 12y_216 + 24y_217 + 28y_218 + 26y_219 + 76y_220 + 64y_221 + 64y_222 + 6y_223 + 28y_224 + 8y_225 + 24y_226 + 28y_227 + 16y_228 + 158y_229 + 74y_230 + 132y_231 + 32y_232 + 64y_233 + 28y_234 + 72y_235 + 8y_236 + 70y_237 + 28y_238 + 132y_239 + 40y_240 + 158y_241 + 98y_242 + 8y_243 + 14y_244 + 10y_245 + 90y_246 + 64y_247 + 46y_248 + 132y_249 + 16y_250 + 24y_251 + 6y_252 + 104y_253 + 18y_254 + 8y_255 + 4y_256 + 72y_257 + 16y_258 + 8y_259 + 4y_260 + 90y_261 + 62y_262 + 28y_263 + 40y_264 + 64y_265 + 8y_266 + 28y_267 + 28y_268 + 24y_269 + 6y_270 + 132y_271 + 33y_272 + 76y_273 + 98y_274 + 102y_275 + 164y_276 + 8y_277 + 4y_278 + 18y_279 + 6y_280 + 87y_281 + 44y_282 + 99y_283 + 16y_284 + 46y_285 + 6y_286 + 132y_287 + 24y_288 + 84y_289 + 112y_290 + 46y_291 + 2y_292 + 6y_293 + 28y_294 + 8y_295 + 122y_296 + 16y_297 + 36y_298 + 32y_299 + 6y_300 + 46y_301 + 84y_302 + 132y_303 + 98y_304 + 44y_305 + 16y_306 + 6y_307 + 2y_308 + 8y_309 + 26y_310 + 28y_311 + 14y_312 + 8y_313 + 46y_314 + 112y_315 + 28y_316 + 72y_317 + 102y_318 + 8y_319 + 4y_320 + 33y_321 + 27y_322 + 16y_323 + 50y_324 + 44y_325 + 140y_326 + 12y_327 + 90y_328 + 46y_329 + 90y_330 + 9y_331 + 99y_332 + 47y_333 + 26y_334 + 11y_335 + 74y_336 + 7y_337 + 35y_338 + 32y_339 + 46y_340 + 46y_341 + 132y_342 + 102y_343 + 28y_344 + 84y_345 + 112y_346 + 158y_347 + 102y_348 + 164y_349 + 24y_350 + 132y_351 + 27y_352 + 6y_353 + 23y_354 + 76y_355 + 64y_356 + 6y_357 + 158y_358 + 26y_359 + 74y_360 + 16y_361 + 36y_362 + 24y_363 + 158y_364 + 90y_365 + 70y_366 + 28y_367 + 10y_368 + 16y_369 + 36y_370 + 122y_371 + 16y_372 + 28y_373 + 8y_374 + 98y_375 + 6y_376 + 62y_377 + 74y_378 + 28y_379 + 26y_380 + 42y_381 + 8y_382 + 16y_383 + 28y_384 + 46y_385 + 102y_386 + 28y_387 + 118y_388 + 74y_389 + 62y_390 + 90y_391 + 70y_392 + 40y_393 + 112y_394 + 90y_395 + 28y_396 + 28y_397 + 84y_398 + 6y_399 + 46y_400 + 132y_401 + 76y_402 + 70y_403 + 104y_404 + 24y_405 + 10y_406 + 18y_407 + 36y_408 + 6y_409 + 12y_410 + 40y_411 + 90y_412 + 46y_413 + 70y_414 + 62y_415 + 40y_416 + 118y_417 + 74y_418 + 28y_419 + 14y_420 + 34y_421 + 98y_422 + 76y_423 + 24y_424 + 16y_425 + 46y_426 + 14y_427 + 122y_428 + 8y_429 + 28y_430 + 14y_431 + 34y_432 + 2y_433 + 114y_434 + 62y_435 + 118y_436 + 64y_437 + 76y_438 + 21y_439 + 16y_440 + 32y_441 + 158y_442 + 36y_443 + 2y_444 + 47y_445 + 114y_446 + 12y_447 + 40y_448 + 28y_449 + 112y_450 + 132y_451 + 46y_452 + 28y_453 + 76y_454 + 58y_455 + 34y_456 + 98y_457 + 28y_458 + 32y_459 + 132y_460 + 72y_461 + 64y_462 + 26y_463 + 8y_464 + 51y_465 + 21y_466 + 6y_467 + 130y_468 + 64y_469 + 8y_470 + 16y_471 + 28y_472 + 34y_473 + 98y_474 + 6y_475 + 8y_476 + 2y_477 + 16y_478 + 7y_479 + 28y_480 + 6y_481 + 8y_482 + 28y_483 + 2y_484 + 2y_485 + 74y_486 + 118y_487 + 62y_488 + 158y_489 + 84y_490 + 112y_491 + 22y_492 + 20y_493 + 2y_494 + 26y_495 + 58y_496 + 54y_497 + 132y_498 + 32y_499 + 2y_500 + 42y_501 + 8y_502 + 28y_503 + 16y_504 + 24y_505 + 122y_506 + 2y_507 + 114y_508 + 10y_509 + 32y_510 + 28y_511 + 158y_512 + 70y_513 + 32y_514 + 54y_515 + 123y_516 + 16y_517 + 98y_518 + 8y_519 + 53y_520 + 23y_521 + 22y_522 + 32y_523 + 26y_524 + 6y_525 + 64y_526 + 8y_527 + 14y_528 + 36y_529 + 6y_530 + 18y_531 + 28y_532 + 8y_533 + 14y_534 + 98y_535 + 102y_536 + 4y_537 + 51y_538 + 158y_539 + 24y_540 + 36y_541 + 6y_542 + 6y_543 + 112y_544 + 32y_545 + 102y_546 + 4y_547 + 164y_548
Subject To
x_549 = 13
x_550 = 1
x_551 = 1
x_552 = 1
x_553 = 1
x_554 = 1
x_555 = 1
x_556 = 1
x_557 = 1
x_558 = 1
x_559 = 1
x_560 = 1
x_561 = 1
x_562 = 1
x_1 - 14y_1 <= 0
x_2 - 14y_2 <= 0
x_3 - 14y_3 <= 0
x_4 - 14y_4 <= 0
x_5 - 14y_5 <= 0
x_6 - 14y_6 <= 0
x_7 - 14y_7 <= 0
x_8 - 14y_8 <= 0
x_9 - 14y_9 <= 0
x_10 - 14y_10 <= 0
x_11 - 14y_11 <= 0
x_12 - 14y_12 <= 0
x_13 - 14y_13 <= 0
x_14 - 14y_14 <= 0
x_15 - 14y_15 <= 0
x_16 - 14y_16 <= 0
x_17 - 14y_17 <= 0
x_18 - 14y_18 <= 0
x_19 - 14y_19 <= 0
x_20 - 14y_20 <= 0
x_21 - 14y_21 <= 0
x_22 - 14y_22 <= 0
x_23 - 14y_23 <= 0
x_24 - 14y_24 <= 0
x_25 - 14y_25 <= 0
x_26 - 14y_26 <= 0
x_27 - 14y_27 <= 0
x_28 - 14y_28 <= 0
x_29 - 14y_29 <= 0
x_30 - 14y_30 <= 0
x_31 - 14y_31 <= 0
x_32 - 14y_32 <= 0
x_33 - 14y_33 <= 0
x_34 - 14y_34 <= 0
x_35 - 14y_35 <= 0
x_36 - 14y_36 <= 0
x_37 - 14y_37 <= 0
x_38 - 14y_38 <= 0
x_39 - 14y_39 <= 0
x_40 - 14y_40 <= 0
x_41 - 14y_41 <= 0
x_42 - 14y_42 <= 0
x_43 - 14y_43 <= 0
x_44 - 14y_44 <= 0
x_45 - 14y_45 <= 0
x_46 - 14y_46 <= 0
x_47 - 14y_47 <= 0
x_48 - 14y_48 <= 0
x_49 - 14y_49 <= 0
x_50 - 14y_50 <= 0
x_51 - 14y_51 <= 0
x_52 - 14y_52 <= 0
x_53 - 14y_53 <= 0
x_54 - 14y_54 <= 0
x_55 - 14y_55 <= 0
x_56 - 14y_56 <= 0
x_57 - 14y_57 <= 0
x_58 - 14y_58 <= 0
x_59 - 14y_59 <= 0
x_60 - 14y_60 <= 0
x_61 - 14y_61 <= 0
x_62 - 14y_62 <= 0
x_63 - 14y_63 <= 0
x_64 - 14y_64 <= 0
x_65 - 14y_65 <= 0
x_66 - 14y_66 <= 0
x_67 - 14y_67 <= 0
x_68 - 14y_68 <= 0
x_69 - 14y_69 <= 0
x_70 - 14y_70 <= 0
x_71 - 14y_71 <= 0
x_72 - 14y_72 <= 0
x_73 - 14y_73 <= 0
x_74 - 14y_74 <= 0
x_75 - 14y_75 <= 0
x_76 - 14y_76 <= 0
x_77 - 14y_77 <= 0
x_78 - 14y_78 <= 0
x_79 - 14y_79 <= 0
x_80 - 14y_80 <= 0
x_81 - 14y_81 <= 0
x_82 - 14y_82 <= 0
x_83 - 14y_83 <= 0
x_84 - 14y_84 <= 0
x_85 - 14y_85 <= 0
x_86 - 14y_86 <= 0
x_87 - 14y_87 <= 0
x_88 - 14y_88 <= 0
x_89 - 14y_89 <= 0
x_90 - 14y_90 <= 0
x_91 - 14y_91 <= 0
x_92 - 14y_92 <= 0
x_93 - 14y_93 <= 0
x_94 - 14y_94 <= 0
x_95 - 14y_95 <= 0
x_96 - 14y_96 <= 0
x_97 - 14y_97 <= 0
x_98 - 14y_98 <= 0
x_99 - 14y_99 <= 0
x_100 - 14y_100 <= 0
x_101 - 14y_101 <= 0
x_102 - 14y_102 <= 0
x_103 - 14y_103 <= 0
x_104 - 14y_104 <= 0
x_105 - 14y_105 <= 0
x_106 - 14y_106 <= 0
x_107 - 14y_107 <= 0
x_108 - 14y_108 <= 0
x_109 - 14y_109 <= 0
x_110 - 14y_110 <= 0
x_111 - 14y_111 <= 0
x_112 - 14y_112 <= 0
x_113 - 14y_113 <= 0
x_114 - 14y_114 <= 0
x_115 - 14y_115 <= 0
x_116 - 14y_116 <= 0
x_117 - 14y_117 <= 0
x_118 - 14y_118 <= 0
x_119 - 14y_119 <= 0
x_120 - 14y_120 <= 0
x_121 - 14y_121 <= 0
x_122 - 14y_122 <= 0
x_123 - 14y_123 <= 0
x_124 - 14y_124 <= 0
x_125 - 14y_125 <= 0
x_126 - 14y_126 <= 0
x_127 - 14y_127 <= 0
x_128 - 14y_128 <= 0
x_129 - 14y_129 <= 0
x_130 - 14y_130 <= 0
x_131 - 14y_131 <= 0
x_132 - 14y_132 <= 0
x_133 - 14y_133 <= 0
x_134 - 14y_134 <= 0
x_135 - 14y_135 <= 0
x_136 - 14y_136 <= 0
x_137 - 14y_137 <= 0
x_138 - 14y_138 <= 0
x_139 - 14y_139 <= 0
x_140 - 14y_140 <= 0
x_141 - 14y_141 <= 0
x_142 - 14y_142 <= 0
x_143 - 14y_143 <= 0
x_144 - 14y_144 <= 0
x_145 - 14y_145 <= 0
x_146 - 14y_146 <= 0
x_147 - 14y_147 <= 0
x_148 - 14y_148 <= 0
x_149 - 14y_149 <= 0
x_150 - 14y_150 <= 0
x_151 - 14y_151 <= 0
x_152 - 14y_152 <= 0
x_153 - 14y_153 <= 0
x_154 - 14y_154 <= 0
x_155 - 14y_155 <= 0
x_156 - 14y_156 <= 0
x_157 - 14y_157 <= 0
x_158 - 14y_158 <= 0
x_159 - 14y_159 <= 0
x_160 - 14y_160 <= 0
x_161 - 14y_161 <= 0
x_162 - 14y_162 <= 0
x_163 - 14y_163 <= 0
x_164 - 14y_164 <= 0
x_165 - 14y_165 <= 0
x_166 - 14y_166 <= 0
x_167 - 14y_167 <= 0
x_168 - 14y_168 <= 0
x_169 - 14y_169 <= 0
x_170 - 14y_170 <= 0
x_171 - 14y_171 <= 0
x_172 - 14y_172 <= 0
x_173 - 14y_173 <= 0
x_174 - 14y_174 <= 0
x_175 - 14y_175 <= 0
x_176 - 14y_176 <= 0
x_177 - 14y_177 <= 0
x_178 - 14y_178 <= 0
x_179 - 14y_179 <= 0
x_180 - 14y_180 <= 0
x_181 - 14y_181 <= 0
x_182 - 14y_182 <= 0
x_183 - 14y_183 <= 0
x_184 - 14y_184 <= 0
x_185 - 14y_185 <= 0
x_186 - 14y_186 <= 0
x_187 - 14y_187 <= 0
x_188 - 14y_188 <= 0
x_189 - 14y_189 <= 0
x_190 - 14y_190 <= 0
x_191 - 14y_191 <= 0
x_192 - 14y_192 <= 0
x_193 - 14y_193 <= 0
x_194 - 14y_194 <= 0
x_195 - 14y_195 <= 0
x_196 - 14y_196 <= 0
x_197 - 14y_197 <= 0
x_198 - 14y_198 <= 0
x_199 - 14y_199 <= 0
x_200 - 14y_200 <= 0
x_201 - 14y_201 <= 0
x_202 - 14y_202 <= 0
x_203 - 14y_203 <= 0
x_204 - 14y_204 <= 0
x_205 - 14y_205 <= 0
x_206 - 14y_206 <= 0
x_207 - 14y_207 <= 0
x_208 - 14y_208 <= 0
x_209 - 14y_209 <= 0
x_210 - 14y_210 <= 0
x_211 - 14y_211 <= 0
x_212 - 14y_212 <= 0
x_213 - 14y_213 <= 0
x_214 - 14y_214 <= 0
x_215 - 14y_215 <= 0
x_216 - 14y_216 <= 0
x_217 - 14y_217 <= 0
x_218 - 14y_218 <= 0
x_219 - 14y_219 <= 0
x_220 - 14y_220 <= 0
x_221 - 14y_221 <= 0
x_222 - 14y_222 <= 0
x_223 - 14y_223 <= 0
x_224 - 14y_224 <= 0
x_225 - 14y_225 <= 0
x_226 - 14y_226 <= 0
x_227 - 14y_227 <= 0
x_228 - 14y_228 <= 0
x_229 - 14y_229 <= 0
x_230 - 14y_230 <= 0
x_231 - 14y_231 <= 0
x_232 - 14y_232 <= 0
x_233 - 14y_233 <= 0
x_234 - 14y_234 <= 0
x_235 - 14y_235 <= 0
x_236 - 14y_236 <= 0
x_237 - 14y_237 <= 0
x_238 - 14y_238 <= 0
x_239 - 14y_239 <= 0
x_240 - 14y_240 <= 0
x_241 - 14y_241 <= 0
x_242 - 14y_242 <= 0
x_243 - 14y_243 <= 0
x_244 - 14y_244 <= 0
x_245 - 14y_245 <= 0
x_246 - 14y_246 <= 0
x_247 - 14y_247 <= 0
x_248 - 14y_248 <= 0
x_249 - 14y_249 <= 0
x_250 - 14y_250 <= 0
x_251 - 14y_251 <= 0
x_252 - 14y_252 <= 0
x_253 - 14y_253 <= 0
x_254 - 14y_254 <= 0
x_255 - 14y_255 <= 0
x_256 - 14y_256 <= 0
x_257 - 14y_257 <= 0
x_258 - 14y_258 <= 0
x_259 - 14y_259 <= 0
x_260 - 14y_260 <= 0
x_261 - 14y_261 <= 0
x_262 - 14y_262 <= 0
x_263 - 14y_263 <= 0
x_264 - 14y_264 <= 0
x_265 - 14y_265 <= 0
x_266 - 14y_266 <= 0
x_267 - 14y_267 <= 0
x_268 - 14y_268 <= 0
x_269 - 14y_269 <= 0
x_270 - 14y_270 <= 0
x_271 - 14y_271 <= 0
x_272 - 14y_272 <= 0
x_273 - 14y_273 <= 0
x_274 - 14y_274 <= 0
x_275 - 14y_275 <= 0
x_276 - 14y_276 <= 0
x_277 - 14y_277 <= 0
x_278 - 14y_278 <= 0
x_279 - 14y_279 <= 0
x_280 - 14y_280 <= 0
x_281 - 14y_281 <= 0
x_282 - 14y_282 <= 0
x_283 - 14y_283 <= 0
x_284 - 14y_284 <= 0
x_285 - 14y_285 <= 0
x_286 - 14y_286 <= 0
x_287 - 14y_287 <= 0
x_288 - 14y_288 <= 0
x_289 - 14y_289 <= 0
x_290 - 14y_290 <= 0
x_291 - 14y_291 <= 0
x_292 - 14y_292 <= 0
x_293 - 14y_293 <= 0
x_294 - 14y_294 <= 0
x_295 - 14y_295 <= 0
x_296 - 14y_296 <= 0
x_297 - 14y_297 <= 0
x_298 - 14y_298 <= 0
x_299 - 14y_299 <= 0
x_300 - 14y_300 <= 0
x_301 - 14y_301 <= 0
x_302 - 14y_302 <= 0
x_303 - 14y_303 <= 0
x_304 - 14y_304 <= 0
x_305 - 14y_305 <= 0
x_306 - 14y_306 <= 0
x_307 - 14y_307 <= 0
x_308 - 14y_308 <= 0
x_309 - 14y_309 <= 0
x_310 - 14y_310 <= 0
x_311 - 14y_311 <= 0
x_312 - 14y_312 <= 0
x_313 - 14y_313 <= 0
x_314 - 14y_314 <= 0
x_315 - 14y_315 <= 0
x_316 - 14y_316 <= 0
x_317 - 14y_317 <= 0
x_318 - 14y_318 <= 0
x_319 - 14y_319 <= 0
x_320 - 14y_320 <= 0
x_321 - 14y_321 <= 0
x_322 - 14y_322 <= 0
x_323 - 14y_323 <= 0
x_324 - 14y_324 <= 0
x_325 - 14y_325 <= 0
x_326 - 14y_326 <= 0
x_327 - 14y_327 <= 0
x_328 - 14y_328 <= 0
x_329 - 14y_329 <= 0
x_330 - 14y_330 <= 0
x_331 - 14y_331 <= 0
x_332 - 14y_332 <= 0
x_333 - 14y_333 <= 0
x_334 - 14y_334 <= 0
x_335 - 14y_335 <= 0
x_336 - 14y_336 <= 0
x_337 - 14y_337 <= 0
x_338 - 14y_338 <= 0
x_339 - 14y_339 <= 0
x_340 - 14y_340 <= 0
x_341 - 14y_341 <= 0
x_342 - 14y_342 <= 0
x_343 - 14y_343 <= 0
x_344 - 14y_344 <= 0
x_345 - 14y_345 <= 0
x_346 - 14y_346 <= 0
x_347 - 14y_347 <= 0
x_348 - 14y_348 <= 0
x_349 - 14y_349 <= 0
x_350 - 14y_350 <= 0
x_351 - 14y_351 <= 0
x_352 - 14y_352 <= 0
x_353 - 14y_353 <= 0
x_354 - 14y_354 <= 0
x_355 - 14y_355 <= 0
x_356 - 14y_356 <= 0
x_357 - 14y_357 <= 0
x_358 - 14y_358 <= 0
x_359 - 14y_359 <= 0
x_360 - 14y_360 <= 0
x_361 - 14y_361 <= 0
x_362 - 14y_362 <= 0
x_363 - 14y_363 <= 0
x_364 - 14y_364 <= 0
x_365 - 14y_365 <= 0
x_366 - 14y_366 <= 0
x_367 - 14y_367 <= 0
x_368 - 14y_368 <= 0
x_369 - 14y_369 <= 0
x_370 - 14y_370 <= 0
x_371 - 14y_371 <= 0
x_372 - 14y_372 <= 0
x_373 - 14y_373 <= 0
x_374 - 14y_374 <= 0
x_375 - 14y_375 <= 0
x_376 - 14y_376 <= 0
x_377 - 14y_377 <= 0
x_378 - 14y_378 <= 0
x_379 - 14y_379 <= 0
x_380 - 14y_380 <= 0
x_381 - 14y_381 <= 0
x_382 - 14y_382 <= 0
x_383 - 14y_383 <= 0
x_384 - 14y_384 <= 0
x_385 - 14y_385 <= 0
x_386 - 14y_386 <= 0
x_387 - 14y_387 <= 0
x_388 - 14y_388 <= 0
x_389 - 14y_389 <= 0
x_390 - 14y_390 <= 0
x_391 - 14y_391 <= 0
x_392 - 14y_392 <= 0
x_393 - 14y_393 <= 0
x_394 - 14y_394 <= 0
x_395 - 14y_395 <= 0
x_396 - 14y_396 <= 0
x_397 - 14y_397 <= 0
x_398 - 14y_398 <= 0
x_399 - 14y_399 <= 0
x_400 - 14y_400 <= 0
x_401 - 14y_401 <= 0
x_402 - 14y_402 <= 0
x_403 - 14y_403 <= 0
x_404 - 14y_404 <= 0
x_405 - 14y_405 <= 0
x_406 - 14y_406 <= 0
x_407 - 14y_407 <= 0
x_408 - 14y_408 <= 0
x_409 - 14y_409 <= 0
x_410 - 14y_410 <= 0
x_411 - 14y_411 <= 0
x_412 - 14y_412 <= 0
x_413 - 14y_413 <= 0
x_414 - 14y_414 <= 0
x_415 - 14y_415 <= 0
x_416 - 14y_416 <= 0
x_417 - 14y_417 <= 0
x_418 - 14y_418 <= 0
x_419 - 14y_419 <= 0
x_420 - 14y_420 <= 0
x_421 - 14y_421 <= 0
x_422 - 14y_422 <= 0
x_423 - 14y_423 <= 0
x_424 - 14y_424 <= 0
x_425 - 14y_425 <= 0
x_426 - 14y_426 <= 0
x_427 - 14y_427 <= 0
x_428 - 14y_428 <= 0
x_429 - 14y_429 <= 0
x_430 - 14y_430 <= 0
x_431 - 14y_431 <= 0
x_432 - 14y_432 <= 0
x_433 - 14y_433 <= 0
x_434 - 14y_434 <= 0
x_435 - 14y_435 <= 0
x_436 - 14y_436 <= 0
x_437 - 14y_437 <= 0
x_438 - 14y_438 <= 0
x_439 - 14y_439 <= 0
x_440 - 14y_440 <= 0
x_441 - 14y_441 <= 0
x_442 - 14y_442 <= 0
x_443 - 14y_443 <= 0
x_444 - 14y_444 <= 0
x_445 - 14y_445 <= 0
x_446 - 14y_446 <= 0
x_447 - 14y_447 <= 0
x_448 - 14y_448 <= 0
x_449 - 14y_449 <= 0
x_450 - 14y_450 <= 0
x_451 - 14y_451 <= 0
x_452 - 14y_452 <= 0
x_453 - 14y_453 <= 0
x_454 - 14y_454 <= 0
x_455 - 14y_455 <= 0
x_456 - 14y_456 <= 0
x_457 - 14y_457 <= 0
x_458 - 14y_458 <= 0
x_459 - 14y_459 <= 0
x_460 - 14y_460 <= 0
x_461 - 14y_461 <= 0
x_462 - 14y_462 <= 0
x_463 - 14y_463 <= 0
x_464 - 14y_464 <= 0
x_465 - 14y_465 <= 0
x_466 - 14y_466 <= 0
x_467 - 14y_467 <= 0
x_468 - 14y_468 <= 0
x_469 - 14y_469 <= 0
x_470 - 14y_470 <= 0
x_471 - 14y_471 <= 0
x_472 - 14y_472 <= 0
x_473 - 14y_473 <= 0
x_474 - 14y_474 <= 0
x_475 - 14y_475 <= 0
x_476 - 14y_476 <= 0
x_477 - 14y_477 <= 0
x_478 - 14y_478 <= 0
x_479 - 14y_479 <= 0
x_480 - 14y_480 <= 0
x_481 - 14y_481 <= 0
x_482 - 14y_482 <= 0
x_483 - 14y_483 <= 0
x_484 - 14y_484 <= 0
x_485 - 14y_485 <= 0
x_486 - 14y_486 <= 0
x_487 - 14y_487 <= 0
x_488 - 14y_488 <= 0
x_489 - 14y_489 <= 0
x_490 - 14y_490 <= 0
x_491 - 14y_491 <= 0
x_492 - 14y_492 <= 0
x_493 - 14y_493 <= 0
x_494 - 14y_494 <= 0
x_495 - 14y_495 <= 0
x_496 - 14y_496 <= 0
x_497 - 14y_497 <= 0
x_498 - 14y_498 <= 0
x_499 - 14y_499 <= 0
x_500 - 14y_500 <= 0
x_501 - 14y_501 <= 0
x_502 - 14y_502 <= 0
x_503 - 14y_503 <= 0
x_504 - 14y_504 <= 0
x_505 - 14y_505 <= 0
x_506 - 14y_506 <= 0
x_507 - 14y_507 <= 0
x_508 - 14y_508 <= 0
x_509 - 14y_509 <= 0
x_510 - 14y_510 <= 0
x_511 - 14y_511 <= 0
x_512 - 14y_512 <= 0
x_513 - 14y_513 <= 0
x_514 - 14y_514 <= 0
x_515 - 14y_515 <= 0
x_516 - 14y_516 <= 0
x_517 - 14y_517 <= 0
x_518 - 14y_518 <= 0
x_519 - 14y_519 <= 0
x_520 - 14y_520 <= 0
x_521 - 14y_521 <= 0
x_522 - 14y_522 <= 0
x_523 - 14y_523 <= 0
x_524 - 14y_524 <= 0
x_525 - 14y_525 <= 0
x_526 - 14y_526 <= 0
x_527 - 14y_527 <= 0
x_528 - 14y_528 <= 0
x_529 - 14y_529 <= 0
x_530 - 14y_530 <= 0
x_531 - 14y_531 <= 0
x_532 - 14y_532 <= 0
x_533 - 14y_533 <= 0
x_534 - 14y_534 <= 0
x_535 - 14y_535 <= 0
x_536 - 14y_536 <= 0
x_537 - 14y_537 <= 0
x_538 - 14y_538 <= 0
x_539 - 14y_539 <= 0
x_540 - 14y_540 <= 0
x_541 - 14y_541 <= 0
x_542 - 14y_542 <= 0
x_543 - 14y_543 <= 0
x_544 - 14y_544 <= 0
x_545 - 14y_545 <= 0
x_546 - 14y_546 <= 0
x_547 - 14y_547 <= 0
x_548 - 14y_548 <= 0
x_1 - x_121 +  x_2 - x_162 = 0
x_4 - x_81 +  x_3 - x_324 +  x_5 - x_247 = 0
x_8 - x_436 +  x_6 - x_180 +  x_7 - x_390 = 0
x_10 - x_415 +  x_12 - x_232 +  x_11 - x_72 +  x_9 - x_111 = 0
x_13 - x_281 +  x_14 - x_331 - x_551 = 0
x_18 - x_334 +  x_16 - x_387 +  x_17 - x_378 +  x_15 - x_178 = 0
x_20 - x_412 +  x_19 - x_61 +  x_22 - x_200 +  x_21 - x_449 = 0
x_24 - x_386 +  x_25 - x_52 +  x_23 - x_171 = 0
x_26 - x_237 +  x_27 - x_104 +  x_29 - x_148 +  x_28 - x_131 = 0
x_32 - x_486 +  x_30 - x_35 +  x_31 - x_417 = 0
-x_553 +  x_34 - x_186 +  x_33 - x_264 = 0
x_36 - x_71 +  x_35 - x_30 +  x_37 - x_113 = 0
x_38 - x_368 +  x_39 - x_528 - x_555 = 0
x_41 - x_96 +  x_40 - x_441 +  x_42 - x_512 = 0
x_43 - x_339 +  x_44 - x_47 +  x_45 - x_425 = 0
x_47 - x_44 +  x_49 - x_250 +  x_48 - x_167 +  x_46 - x_63 = 0
x_51 - x_316 +  x_52 - x_25 +  x_50 - x_103 = 0
x_53 - x_469 +  x_55 - x_266 +  x_54 - x_91 = 0
x_57 - x_495 +  x_58 - x_201 +  x_56 - x_308 = 0
x_59 - x_238 +  x_62 - x_146 +  x_61 - x_19 +  x_60 - x_391 = 0
x_66 - x_137 +  x_64 - x_459 +  x_63 - x_46 +  x_65 - x_125 = 0
x_68 - x_302 +  x_67 - x_450 +  x_69 - x_291 +  x_70 - x_109 = 0
x_72 - x_11 +  x_73 - x_99 +  x_71 - x_36 = 0
x_77 - x_191 +  x_74 - x_268 +  x_75 - x_226 +  x_76 - x_539 = 0
x_79 - x_335 +  x_78 - x_154 - x_558 = 0
x_80 - x_468 +  x_81 - x_4 +  x_82 - x_92 = 0
x_85 - x_175 +  x_83 - x_497 +  x_84 - x_95 = 0
x_88 - x_477 +  x_87 - x_502 +  x_86 - x_492 = 0
x_89 - x_245 +  x_91 - x_54 +  x_92 - x_82 +  x_90 - x_522 = 0
x_94 - x_101 - x_561 +  x_93 - x_516 = 0
x_95 - x_84 +  x_97 - x_299 +  x_96 - x_41 = 0
x_99 - x_73 +  x_98 - x_230 = 0
x_100 - x_323 +  x_101 - x_94 +  x_102 - x_305 = 0
x_105 - x_453 +  x_103 - x_50 +  x_106 - x_403 +  x_104 - x_27 = 0
x_107 - x_163 +  x_109 - x_70 +  x_108 - x_344 +  x_110 - x_133 = 0
x_112 - x_485 +  x_114 - x_214 +  x_113 - x_37 +  x_111 - x_9 = 0
x_116 - x_151 +  x_117 - x_310 +  x_118 - x_520 +  x_115 - x_494 = 0
x_121 - x_1 +  x_120 - x_192 +  x_119 - x_138 = 0
x_124 - x_228 +  x_123 - x_442 +  x_125 - x_65 +  x_122 - x_510 = 0
x_126 - x_517 +  x_127 - x_493 +  x_128 - x_382 +  x_129 - x_326 = 0
x_131 - x_28 +  x_132 - x_397 +  x_130 - x_451 +  x_133 - x_110 = 0
x_136 - x_249 +  x_137 - x_66 +  x_135 - x_227 +  x_134 - x_269 = 0
x_140 - x_423 +  x_138 - x_119 +  x_139 - x_274 = 0
x_141 - x_189 +  x_143 - x_490 +  x_144 - x_542 +  x_142 - x_408 = 0
x_145 - x_365 +  x_148 - x_29 +  x_146 - x_62 +  x_147 - x_396 = 0
x_152 - x_221 +  x_149 - x_524 +  x_150 - x_355 +  x_151 - x_116 = 0
x_154 - x_78 +  x_153 - x_241 +  x_155 - x_181 = 0
x_156 - x_532 +  x_158 - x_421 +  x_159 - x_474 +  x_157 - x_431 = 0
x_160 - x_358 +  x_161 - x_428 +  x_162 - x_2 = 0
x_163 - x_107 +  x_165 - x_190 +  x_166 - x_303 +  x_164 - x_270 = 0
x_168 - x_340 +  x_169 - x_460 +  x_167 - x_48 = 0
x_170 - x_351 +  x_173 - x_402 +  x_171 - x_23 +  x_172 - x_343 = 0
x_175 - x_85 +  x_176 - x_504 +  x_174 - x_296 +  x_177 - x_515 = 0
x_178 - x_15 +  x_180 - x_6 +  x_181 - x_155 +  x_179 - x_304 = 0
x_184 - x_548 +  x_182 - x_348 +  x_183 - x_342 = 0
x_187 - x_211 +  x_185 - x_413 +  x_186 - x_34 = 0
x_190 - x_165 +  x_191 - x_77 +  x_189 - x_141 +  x_188 - x_345 = 0
x_192 - x_120 +  x_193 - x_420 +  x_194 - x_432 = 0
x_197 - x_399 +  x_196 - x_424 +  x_195 - x_285 = 0
x_199 - x_218 +  x_198 - x_328 +  x_200 - x_22 = 0
x_203 - x_484 +  x_204 - x_503 +  x_201 - x_58 +  x_202 - x_338 = 0
x_206 - x_224 +  x_207 - x_481 +  x_208 - x_233 +  x_205 - x_527 = 0
x_209 - x_258 +  x_210 - x_329 +  x_211 - x_187 = 0
x_215 - x_508 +  x_212 - x_416 +  x_213 - x_433 +  x_214 - x_114 = 0
x_218 - x_199 +  x_216 - x_447 +  x_217 - x_350 = 0
x_221 - x_152 +  x_220 - x_438 +  x_219 - x_463 = 0
x_223 - x_293 +  x_224 - x_206 +  x_222 - x_265 +  x_225 - x_470 = 0
x_226 - x_75 +  x_227 - x_135 +  x_228 - x_124 +  x_229 - x_364 = 0
x_230 - x_98 +  x_231 - x_498 +  x_232 - x_12 = 0
x_234 - x_267 +  x_233 - x_208 +  x_236 - x_464 +  x_235 - x_257 = 0
x_239 - x_401 +  x_237 - x_26 +  x_240 - x_448 +  x_238 - x_59 = 0
x_241 - x_153 +  x_244 - x_427 +  x_242 - x_518 +  x_243 - x_533 = 0
x_245 - x_89 +  x_246 - x_330 +  x_247 - x_5 = 0
x_249 - x_136 +  x_250 - x_49 +  x_248 - x_426 +  x_251 - x_288 = 0
x_254 - x_531 +  x_253 - x_404 +  x_252 - x_280 = 0
x_255 - x_319 +  x_256 - x_260 +  x_257 - x_235 = 0
x_260 - x_256 +  x_258 - x_209 +  x_259 - x_277 = 0
x_263 - x_367 +  x_261 - x_395 +  x_262 - x_377 = 0
x_265 - x_222 +  x_267 - x_234 +  x_264 - x_33 +  x_266 - x_55 = 0
x_270 - x_164 +  x_268 - x_74 +  x_271 - x_287 +  x_269 - x_134 = 0
x_274 - x_139 +  x_272 - x_321 +  x_273 - x_454 = 0
x_278 - x_320 +  x_277 - x_259 +  x_276 - x_349 +  x_275 - x_546 = 0
x_280 - x_252 +  x_281 - x_13 +  x_279 - x_407 = 0
x_284 - x_306 +  x_282 - x_325 +  x_283 - x_332 = 0
x_285 - x_195 +  x_286 - x_300 +  x_287 - x_271 +  x_288 - x_251 = 0
x_289 - x_398 +  x_290 - x_315 +  x_291 - x_69 = 0
x_295 - x_476 +  x_292 - x_500 +  x_293 - x_223 +  x_294 - x_483 = 0
x_298 - x_443 +  x_297 - x_369 +  x_296 - x_174 +  x_299 - x_97 = 0
x_301 - x_400 +  x_303 - x_166 +  x_302 - x_68 +  x_300 - x_286 = 0
x_304 - x_179 +  x_306 - x_284 +  x_305 - x_102 = 0
x_309 - x_482 +  x_310 - x_117 +  x_308 - x_56 +  x_307 - x_525 = 0
x_312 - x_534 +  x_313 - x_429 +  x_311 - x_430 = 0
x_314 - x_452 +  x_316 - x_51 +  x_315 - x_290 = 0
x_319 - x_255 +  x_318 - x_536 +  x_317 - x_461 +  x_320 - x_278 = 0
x_322 - x_352 - x_562 +  x_321 - x_272 = 0
x_325 - x_282 +  x_324 - x_3 +  x_323 - x_100 +  x_326 - x_129 = 0
x_327 - x_410 +  x_329 - x_210 +  x_328 - x_198 = 0
x_549 +  x_330 - x_246 +  x_331 - x_14 = 0
x_333 - x_445 +  x_332 - x_283 - x_550 = 0
x_335 - x_79 +  x_334 - x_18 +  x_336 - x_360 = 0
x_337 - x_479 +  x_338 - x_202 - x_552 = 0
x_339 - x_43 +  x_340 - x_168 = 0
x_342 - x_183 +  x_343 - x_172 +  x_341 - x_385 = 0
x_345 - x_188 +  x_347 - x_489 +  x_346 - x_394 +  x_344 - x_108 = 0
x_351 - x_170 +  x_349 - x_276 +  x_348 - x_182 +  x_350 - x_217 = 0
x_352 - x_322 +  x_354 - x_521 +  x_353 - x_357 = 0
x_356 - x_437 +  x_357 - x_353 +  x_355 - x_150 = 0
x_358 - x_160 +  x_359 - x_380 +  x_360 - x_336 = 0
x_363 - x_540 +  x_362 - x_370 +  x_364 - x_229 +  x_361 - x_440 = 0
x_365 - x_145 +  x_367 - x_263 +  x_366 - x_392 = 0
x_368 - x_38 +  x_371 - x_506 +  x_370 - x_362 +  x_369 - x_297 = 0
x_372 - x_383 +  x_373 - x_472 +  x_375 - x_535 +  x_374 - x_519 = 0
x_377 - x_262 - x_556 +  x_376 - x_543 = 0
x_380 - x_359 +  x_378 - x_17 +  x_379 - x_419 = 0
x_383 - x_372 +  x_381 - x_501 +  x_382 - x_128 +  x_384 - x_480 = 0
x_385 - x_341 +  x_386 - x_24 = 0
x_388 - x_487 +  x_389 - x_418 +  x_387 - x_16 +  x_390 - x_7 = 0
x_393 - x_411 +  x_391 - x_60 +  x_392 - x_366 = 0
x_396 - x_147 +  x_397 - x_132 +  x_394 - x_346 +  x_395 - x_261 = 0
x_399 - x_197 +  x_398 - x_289 +  x_400 - x_301 = 0
x_402 - x_173 +  x_403 - x_106 +  x_401 - x_239 = 0
x_406 - x_509 +  x_405 - x_505 +  x_404 - x_253 = 0
x_408 - x_142 +  x_409 - x_530 +  x_407 - x_279 = 0
x_410 - x_327 +  x_413 - x_185 +  x_411 - x_393 +  x_412 - x_20 = 0
x_416 - x_212 +  x_414 - x_513 +  x_415 - x_10 = 0
x_417 - x_31 +  x_419 - x_379 +  x_418 - x_389 = 0
x_423 - x_140 +  x_420 - x_193 +  x_422 - x_457 +  x_421 - x_158 = 0
x_425 - x_45 +  x_426 - x_248 +  x_424 - x_196 = 0
x_429 - x_313 +  x_427 - x_244 +  x_428 - x_161 = 0
x_431 - x_157 +  x_432 - x_194 +  x_430 - x_311 = 0
x_436 - x_8 +  x_435 - x_488 +  x_434 - x_446 +  x_433 - x_213 = 0
x_437 - x_356 +  x_439 - x_466 +  x_438 - x_220 = 0
x_441 - x_40 +  x_442 - x_123 +  x_440 - x_361 +  x_443 - x_298 = 0
x_444 - x_507 +  x_446 - x_434 +  x_445 - x_333 = 0
x_447 - x_216 +  x_448 - x_240 +  x_449 - x_21 = 0
x_450 - x_67 +  x_451 - x_130 +  x_452 - x_314 +  x_453 - x_105 = 0
x_456 - x_473 +  x_457 - x_422 +  x_454 - x_273 +  x_455 - x_496 = 0
x_460 - x_169 +  x_458 - x_511 +  x_459 - x_64 = 0
x_463 - x_219 +  x_462 - x_526 +  x_461 - x_317 +  x_464 - x_236 = 0
-x_554 +  x_466 - x_439 +  x_465 - x_538 = 0
x_469 - x_53 +  x_467 - x_475 +  x_470 - x_225 +  x_468 - x_80 = 0
x_473 - x_456 +  x_471 - x_478 +  x_472 - x_373 +  x_474 - x_159 = 0
x_475 - x_467 +  x_477 - x_88 +  x_476 - x_295 = 0
x_479 - x_337 +  x_478 - x_471 +  x_480 - x_384 = 0
x_481 - x_207 +  x_483 - x_294 +  x_482 - x_309 +  x_484 - x_203 = 0
x_485 - x_112 +  x_488 - x_435 +  x_486 - x_32 +  x_487 - x_388 = 0
x_489 - x_347 +  x_491 - x_544 +  x_490 - x_143 = 0
-x_557 +  x_492 - x_86 +  x_493 - x_127 = 0
x_495 - x_57 +  x_496 - x_455 +  x_494 - x_115 = 0
x_498 - x_231 +  x_497 - x_83 +  x_499 - x_514 = 0
x_501 - x_381 +  x_503 - x_204 +  x_500 - x_292 +  x_502 - x_87 = 0
x_506 - x_371 +  x_505 - x_405 +  x_504 - x_176 = 0
x_507 - x_444 +  x_509 - x_406 +  x_508 - x_215 = 0
x_511 - x_458 +  x_510 - x_122 +  x_512 - x_42 = 0
x_513 - x_414 +  x_514 - x_499 +  x_515 - x_177 = 0
x_517 - x_126 +  x_516 - x_93 +  x_518 - x_242 +  x_519 - x_374 = 0
x_521 - x_354 - x_559 +  x_520 - x_118 = 0
-x_560 +  x_522 - x_90 +  x_523 - x_545 = 0
x_525 - x_307 +  x_526 - x_462 +  x_527 - x_205 +  x_524 - x_149 = 0
x_530 - x_409 +  x_528 - x_39 +  x_529 - x_541 +  x_531 - x_254 = 0
x_533 - x_243 +  x_534 - x_312 +  x_535 - x_375 +  x_532 - x_156 = 0
x_537 - x_547 +  x_538 - x_465 +  x_536 - x_318 = 0
x_540 - x_363 +  x_541 - x_529 +  x_542 - x_144 +  x_539 - x_76 = 0
x_545 - x_523 +  x_543 - x_376 +  x_544 - x_491 = 0
x_548 - x_184 +  x_547 - x_537 +  x_546 - x_275 = 0
Bounds
x_1 >= 0
x_2 >= 0
x_3 >= 0
x_4 >= 0
x_5 >= 0
x_6 >= 0
x_7 >= 0
x_8 >= 0
x_9 >= 0
x_10 >= 0
x_11 >= 0
x_12 >= 0
x_13 >= 0
x_14 >= 0
x_15 >= 0
x_16 >= 0
x_17 >= 0
x_18 >= 0
x_19 >= 0
x_20 >= 0
x_21 >= 0
x_22 >= 0
x_23 >= 0
x_24 >= 0
x_25 >= 0
x_26 >= 0
x_27 >= 0
x_28 >= 0
x_29 >= 0
x_30 >= 0
x_31 >= 0
x_32 >= 0
x_33 >= 0
x_34 >= 0
x_35 >= 0
x_36 >= 0
x_37 >= 0
x_38 >= 0
x_39 >= 0
x_40 >= 0
x_41 >= 0
x_42 >= 0
x_43 >= 0
x_44 >= 0
x_45 >= 0
x_46 >= 0
x_47 >= 0
x_48 >= 0
x_49 >= 0
x_50 >= 0
x_51 >= 0
x_52 >= 0
x_53 >= 0
x_54 >= 0
x_55 >= 0
x_56 >= 0
x_57 >= 0
x_58 >= 0
x_59 >= 0
x_60 >= 0
x_61 >= 0
x_62 >= 0
x_63 >= 0
x_64 >= 0
x_65 >= 0
x_66 >= 0
x_67 >= 0
x_68 >= 0
x_69 >= 0
x_70 >= 0
x_71 >= 0
x_72 >= 0
x_73 >= 0
x_74 >= 0
x_75 >= 0
x_76 >= 0
x_77 >= 0
x_78 >= 0
x_79 >= 0
x_80 >= 0
x_81 >= 0
x_82 >= 0
x_83 >= 0
x_84 >= 0
x_85 >= 0
x_86 >= 0
x_87 >= 0
x_88 >= 0
x_89 >= 0
x_90 >= 0
x_91 >= 0
x_92 >= 0
x_93 >= 0
x_94 >= 0
x_95 >= 0
x_96 >= 0
x_97 >= 0
x_98 >= 0
x_99 >= 0
x_100 >= 0
x_101 >= 0
x_102 >= 0
x_103 >= 0
x_104 >= 0
x_105 >= 0
x_106 >= 0
x_107 >= 0
x_108 >= 0
x_109 >= 0
x_110 >= 0
x_111 >= 0
x_112 >= 0
x_113 >= 0
x_114 >= 0
x_115 >= 0
x_116 >= 0
x_117 >= 0
x_118 >= 0
x_119 >= 0
x_120 >= 0
x_121 >= 0
x_122 >= 0
x_123 >= 0
x_124 >= 0
x_125 >= 0
x_126 >= 0
x_127 >= 0
x_128 >= 0
x_129 >= 0
x_130 >= 0
x_131 >= 0
x_132 >= 0
x_133 >= 0
x_134 >= 0
x_135 >= 0
x_136 >= 0
x_137 >= 0
x_138 >= 0
x_139 >= 0
x_140 >= 0
x_141 >= 0
x_142 >= 0
x_143 >= 0
x_144 >= 0
x_145 >= 0
x_146 >= 0
x_147 >= 0
x_148 >= 0
x_149 >= 0
x_150 >= 0
x_151 >= 0
x_152 >= 0
x_153 >= 0
x_154 >= 0
x_155 >= 0
x_156 >= 0
x_157 >= 0
x_158 >= 0
x_159 >= 0
x_160 >= 0
x_161 >= 0
x_162 >= 0
x_163 >= 0
x_164 >= 0
x_165 >= 0
x_166 >= 0
x_167 >= 0
x_168 >= 0
x_169 >= 0
x_170 >= 0
x_171 >= 0
x_172 >= 0
x_173 >= 0
x_174 >= 0
x_175 >= 0
x_176 >= 0
x_177 >= 0
x_178 >= 0
x_179 >= 0
x_180 >= 0
x_181 >= 0
x_182 >= 0
x_183 >= 0
x_184 >= 0
x_185 >= 0
x_186 >= 0
x_187 >= 0
x_188 >= 0
x_189 >= 0
x_190 >= 0
x_191 >= 0
x_192 >= 0
x_193 >= 0
x_194 >= 0
x_195 >= 0
x_196 >= 0
x_197 >= 0
x_198 >= 0
x_199 >= 0
x_200 >= 0
x_201 >= 0
x_202 >= 0
x_203 >= 0
x_204 >= 0
x_205 >= 0
x_206 >= 0
x_207 >= 0
x_208 >= 0
x_209 >= 0
x_210 >= 0
x_211 >= 0
x_212 >= 0
x_213 >= 0
x_214 >= 0
x_215 >= 0
x_216 >= 0
x_217 >= 0
x_218 >= 0
x_219 >= 0
x_220 >= 0
x_221 >= 0
x_222 >= 0
x_223 >= 0
x_224 >= 0
x_225 >= 0
x_226 >= 0
x_227 >= 0
x_228 >= 0
x_229 >= 0
x_230 >= 0
x_231 >= 0
x_232 >= 0
x_233 >= 0
x_234 >= 0
x_235 >= 0
x_236 >= 0
x_237 >= 0
x_238 >= 0
x_239 >= 0
x_240 >= 0
x_241 >= 0
x_242 >= 0
x_243 >= 0
x_244 >= 0
x_245 >= 0
x_246 >= 0
x_247 >= 0
x_248 >= 0
x_249 >= 0
x_250 >= 0
x_251 >= 0
x_252 >= 0
x_253 >= 0
x_254 >= 0
x_255 >= 0
x_256 >= 0
x_257 >= 0
x_258 >= 0
x_259 >= 0
x_260 >= 0
x_261 >= 0
x_262 >= 0
x_263 >= 0
x_264 >= 0
x_265 >= 0
x_266 >= 0
x_267 >= 0
x_268 >= 0
x_269 >= 0
x_270 >= 0
x_271 >= 0
x_272 >= 0
x_273 >= 0
x_274 >= 0
x_275 >= 0
x_276 >= 0
x_277 >= 0
x_278 >= 0
x_279 >= 0
x_280 >= 0
x_281 >= 0
x_282 >= 0
x_283 >= 0
x_284 >= 0
x_285 >= 0
x_286 >= 0
x_287 >= 0
x_288 >= 0
x_289 >= 0
x_290 >= 0
x_291 >= 0
x_292 >= 0
x_293 >= 0
x_294 >= 0
x_295 >= 0
x_296 >= 0
x_297 >= 0
x_298 >= 0
x_299 >= 0
x_300 >= 0
x_301 >= 0
x_302 >= 0
x_303 >= 0
x_304 >= 0
x_305 >= 0
x_306 >= 0
x_307 >= 0
x_308 >= 0
x_309 >= 0
x_310 >= 0
x_311 >= 0
x_312 >= 0
x_313 >= 0
x_314 >= 0
x_315 >= 0
x_316 >= 0
x_317 >= 0
x_318 >= 0
x_319 >= 0
x_320 >= 0
x_321 >= 0
x_322 >= 0
x_323 >= 0
x_324 >= 0
x_325 >= 0
x_326 >= 0
x_327 >= 0
x_328 >= 0
x_329 >= 0
x_330 >= 0
x_331 >= 0
x_332 >= 0
x_333 >= 0
x_334 >= 0
x_335 >= 0
x_336 >= 0
x_337 >= 0
x_338 >= 0
x_339 >= 0
x_340 >= 0
x_341 >= 0
x_342 >= 0
x_343 >= 0
x_344 >= 0
x_345 >= 0
x_346 >= 0
x_347 >= 0
x_348 >= 0
x_349 >= 0
x_350 >= 0
x_351 >= 0
x_352 >= 0
x_353 >= 0
x_354 >= 0
x_355 >= 0
x_356 >= 0
x_357 >= 0
x_358 >= 0
x_359 >= 0
x_360 >= 0
x_361 >= 0
x_362 >= 0
x_363 >= 0
x_364 >= 0
x_365 >= 0
x_366 >= 0
x_367 >= 0
x_368 >= 0
x_369 >= 0
x_370 >= 0
x_371 >= 0
x_372 >= 0
x_373 >= 0
x_374 >= 0
x_375 >= 0
x_376 >= 0
x_377 >= 0
x_378 >= 0
x_379 >= 0
x_380 >= 0
x_381 >= 0
x_382 >= 0
x_383 >= 0
x_384 >= 0
x_385 >= 0
x_386 >= 0
x_387 >= 0
x_388 >= 0
x_389 >= 0
x_390 >= 0
x_391 >= 0
x_392 >= 0
x_393 >= 0
x_394 >= 0
x_395 >= 0
x_396 >= 0
x_397 >= 0
x_398 >= 0
x_399 >= 0
x_400 >= 0
x_401 >= 0
x_402 >= 0
x_403 >= 0
x_404 >= 0
x_405 >= 0
x_406 >= 0
x_407 >= 0
x_408 >= 0
x_409 >= 0
x_410 >= 0
x_411 >= 0
x_412 >= 0
x_413 >= 0
x_414 >= 0
x_415 >= 0
x_416 >= 0
x_417 >= 0
x_418 >= 0
x_419 >= 0
x_420 >= 0
x_421 >= 0
x_422 >= 0
x_423 >= 0
x_424 >= 0
x_425 >= 0
x_426 >= 0
x_427 >= 0
x_428 >= 0
x_429 >= 0
x_430 >= 0
x_431 >= 0
x_432 >= 0
x_433 >= 0
x_434 >= 0
x_435 >= 0
x_436 >= 0
x_437 >= 0
x_438 >= 0
x_439 >= 0
x_440 >= 0
x_441 >= 0
x_442 >= 0
x_443 >= 0
x_444 >= 0
x_445 >= 0
x_446 >= 0
x_447 >= 0
x_448 >= 0
x_449 >= 0
x_450 >= 0
x_451 >= 0
x_452 >= 0
x_453 >= 0
x_454 >= 0
x_455 >= 0
x_456 >= 0
x_457 >= 0
x_458 >= 0
x_459 >= 0
x_460 >= 0
x_461 >= 0
x_462 >= 0
x_463 >= 0
x_464 >= 0
x_465 >= 0
x_466 >= 0
x_467 >= 0
x_468 >= 0
x_469 >= 0
x_470 >= 0
x_471 >= 0
x_472 >= 0
x_473 >= 0
x_474 >= 0
x_475 >= 0
x_476 >= 0
x_477 >= 0
x_478 >= 0
x_479 >= 0
x_480 >= 0
x_481 >= 0
x_482 >= 0
x_483 >= 0
x_484 >= 0
x_485 >= 0
x_486 >= 0
x_487 >= 0
x_488 >= 0
x_489 >= 0
x_490 >= 0
x_491 >= 0
x_492 >= 0
x_493 >= 0
x_494 >= 0
x_495 >= 0
x_496 >= 0
x_497 >= 0
x_498 >= 0
x_499 >= 0
x_500 >= 0
x_501 >= 0
x_502 >= 0
x_503 >= 0
x_504 >= 0
x_505 >= 0
x_506 >= 0
x_507 >= 0
x_508 >= 0
x_509 >= 0
x_510 >= 0
x_511 >= 0
x_512 >= 0
x_513 >= 0
x_514 >= 0
x_515 >= 0
x_516 >= 0
x_517 >= 0
x_518 >= 0
x_519 >= 0
x_520 >= 0
x_521 >= 0
x_522 >= 0
x_523 >= 0
x_524 >= 0
x_525 >= 0
x_526 >= 0
x_527 >= 0
x_528 >= 0
x_529 >= 0
x_530 >= 0
x_531 >= 0
x_532 >= 0
x_533 >= 0
x_534 >= 0
x_535 >= 0
x_536 >= 0
x_537 >= 0
x_538 >= 0
x_539 >= 0
x_540 >= 0
x_541 >= 0
x_542 >= 0
x_543 >= 0
x_544 >= 0
x_545 >= 0
x_546 >= 0
x_547 >= 0
x_548 >= 0
x_549 >= 0
x_550 >= 0
x_551 >= 0
x_552 >= 0
x_553 >= 0
x_554 >= 0
x_555 >= 0
x_556 >= 0
x_557 >= 0
x_558 >= 0
x_559 >= 0
x_560 >= 0
x_561 >= 0
x_562 >= 0
General
Binaries
y_1
y_2
y_3
y_4
y_5
y_6
y_7
y_8
y_9
y_10
y_11
y_12
y_13
y_14
y_15
y_16
y_17
y_18
y_19
y_20
y_21
y_22
y_23
y_24
y_25
y_26
y_27
y_28
y_29
y_30
y_31
y_32
y_33
y_34
y_35
y_36
y_37
y_38
y_39
y_40
y_41
y_42
y_43
y_44
y_45
y_46
y_47
y_48
y_49
y_50
y_51
y_52
y_53
y_54
y_55
y_56
y_57
y_58
y_59
y_60
y_61
y_62
y_63
y_64
y_65
y_66
y_67
y_68
y_69
y_70
y_71
y_72
y_73
y_74
y_75
y_76
y_77
y_78
y_79
y_80
y_81
y_82
y_83
y_84
y_85
y_86
y_87
y_88
y_89
y_90
y_91
y_92
y_93
y_94
y_95
y_96
y_97
y_98
y_99
y_100
y_101
y_102
y_103
y_104
y_105
y_106
y_107
y_108
y_109
y_110
y_111
y_112
y_113
y_114
y_115
y_116
y_117
y_118
y_119
y_120
y_121
y_122
y_123
y_124
y_125
y_126
y_127
y_128
y_129
y_130
y_131
y_132
y_133
y_134
y_135
y_136
y_137
y_138
y_139
y_140
y_141
y_142
y_143
y_144
y_145
y_146
y_147
y_148
y_149
y_150
y_151
y_152
y_153
y_154
y_155
y_156
y_157
y_158
y_159
y_160
y_161
y_162
y_163
y_164
y_165
y_166
y_167
y_168
y_169
y_170
y_171
y_172
y_173
y_174
y_175
y_176
y_177
y_178
y_179
y_180
y_181
y_182
y_183
y_184
y_185
y_186
y_187
y_188
y_189
y_190
y_191
y_192
y_193
y_194
y_195
y_196
y_197
y_198
y_199
y_200
y_201
y_202
y_203
y_204
y_205
y_206
y_207
y_208
y_209
y_210
y_211
y_212
y_213
y_214
y_215
y_216
y_217
y_218
y_219
y_220
y_221
y_222
y_223
y_224
y_225
y_226
y_227
y_228
y_229
y_230
y_231
y_232
y_233
y_234
y_235
y_236
y_237
y_238
y_239
y_240
y_241
y_242
y_243
y_244
y_245
y_246
y_247
y_248
y_249
y_250
y_251
y_252
y_253
y_254
y_255
y_256
y_257
y_258
y_259
y_260
y_261
y_262
y_263
y_264
y_265
y_266
y_267
y_268
y_269
y_270
y_271
y_272
y_273
y_274
y_275
y_276
y_277
y_278
y_279
y_280
y_281
y_282
y_283
y_284
y_285
y_286
y_287
y_288
y_289
y_290
y_291
y_292
y_293
y_294
y_295
y_296
y_297
y_298
y_299
y_300
y_301
y_302
y_303
y_304
y_305
y_306
y_307
y_308
y_309
y_310
y_311
y_312
y_313
y_314
y_315
y_316
y_317
y_318
y_319
y_320
y_321
y_322
y_323
y_324
y_325
y_326
y_327
y_328
y_329
y_330
y_331
y_332
y_333
y_334
y_335
y_336
y_337
y_338
y_339
y_340
y_341
y_342
y_343
y_344
y_345
y_346
y_347
y_348
y_349
y_350
y_351
y_352
y_353
y_354
y_355
y_356
y_357
y_358
y_359
y_360
y_361
y_362
y_363
y_364
y_365
y_366
y_367
y_368
y_369
y_370
y_371
y_372
y_373
y_374
y_375
y_376
y_377
y_378
y_379
y_380
y_381
y_382
y_383
y_384
y_385
y_386
y_387
y_388
y_389
y_390
y_391
y_392
y_393
y_394
y_395
y_396
y_397
y_398
y_399
y_400
y_401
y_402
y_403
y_404
y_405
y_406
y_407
y_408
y_409
y_410
y_411
y_412
y_413
y_414
y_415
y_416
y_417
y_418
y_419
y_420
y_421
y_422
y_423
y_424
y_425
y_426
y_427
y_428
y_429
y_430
y_431
y_432
y_433
y_434
y_435
y_436
y_437
y_438
y_439
y_440
y_441
y_442
y_443
y_444
y_445
y_446
y_447
y_448
y_449
y_450
y_451
y_452
y_453
y_454
y_455
y_456
y_457
y_458
y_459
y_460
y_461
y_462
y_463
y_464
y_465
y_466
y_467
y_468
y_469
y_470
y_471
y_472
y_473
y_474
y_475
y_476
y_477
y_478
y_479
y_480
y_481
y_482
y_483
y_484
y_485
y_486
y_487
y_488
y_489
y_490
y_491
y_492
y_493
y_494
y_495
y_496
y_497
y_498
y_499
y_500
y_501
y_502
y_503
y_504
y_505
y_506
y_507
y_508
y_509
y_510
y_511
y_512
y_513
y_514
y_515
y_516
y_517
y_518
y_519
y_520
y_521
y_522
y_523
y_524
y_525
y_526
y_527
y_528
y_529
y_530
y_531
y_532
y_533
y_534
y_535
y_536
y_537
y_538
y_539
y_540
y_541
y_542
y_543
y_544
y_545
y_546
y_547
y_548
End
