data/solutions/exact100kb/instance093.txt
VALUE 1348
2 73
5 98
11 79
13 160
18 29
25 47
28 143
29 73
30 33
33 96
37 91
47 54
54 90
61 151
73 98
18 79
5 83
84 96
84 90
91 145
95 106
2 96
84 99
61 101
106 157
106 107
113 164
83 123
107 132
132 140
18 141
141 143
61 145
28 148
28 151
37 157
29 158
123 160
158 164

